20
2 1 3
3 0 6
3 1 3
3 2 10
4 0 5
4 1 8
5 2 2
6 0 2
6 3 7
6 4 9
6 5 2
7 0 9
7 3 10
7 5 3
7 6 6
8 3 9
8 4 4
8 6 7
8 7 3
9 4 2
9 6 11
9 8 1
10 0 11
10 1 10
10 4 6
10 5 7
10 8 8
11 1 11
11 3 1
11 4 8
11 6 11
11 8 8
11 9 5
12 0 1
12 1 9
12 3 7
12 5 11
12 6 11
12 7 8
12 9 10
12 10 1
13 0 11
13 2 9
13 7 10
13 8 5
13 9 1
13 10 1
13 12 3
14 1 8
14 6 5
14 7 6
14 8 1
14 10 11
14 11 2
14 12 7
14 13 5
15 2 3
15 3 7
15 4 5
15 7 4
15 9 9
15 12 4
15 13 3
16 1 6
16 2 4
16 5 1
16 6 8
16 7 9
16 10 8
17 0 3
17 3 1
17 4 8
17 6 5
17 9 8
17 10 4
17 12 3
17 13 7
17 14 4
17 15 3
18 0 10
18 1 5
18 3 8
18 4 2
18 6 7
18 7 11
18 9 9
18 10 9
18 12 5
18 13 8
18 14 6
18 15 1
18 16 7
18 17 10
19 0 7
19 1 3
19 3 7
19 4 3
19 5 6
19 7 2
19 9 3
19 11 6
19 13 2
19 15 4
